<instance format="XCSP3" type="COP">
  <variables>
    <array id="x" size="[50]"> 0 1 </array>
  </variables>
  <constraints>
    <sum>
      <list> x[] </list>
      <coeffs> 36 39 48 14 5 5 35 7 29 49 20 24 18 14 13 35 43 13 47 40 27 33 11 50 25 10 49 4 38 3 6 5 1 7 14 6 40 21 26 35 16 11 28 38 28 43 21 39 1 8 </coeffs>
      <condition> (le,200) </condition>
    </sum>
  </constraints>
  <objectives>
    <maximize type="sum">
      <list> x[] </list>
      <coeffs> 53 34 77 56 37 46 59 30 5 85 1 52 87 84 99 97 9 15 66 29 60 17 16 59 23 88 93 32 2 98 89 63 42 9 86 70 80 96 60 11 18 27 75 21 54 26 2 2 37 51 </coeffs>
    </maximize>
  </objectives>
</instance>
